


Minimize
x_0 + x_1 + x_2 + x_3 + x_4 + x_5 + x_6 + x_7 + x_8 + x_9 + x_10 + x_11 + x_12 + x_13 + x_14 + x_15 

Subject To
x_0   +  x_16   +  x_1   +  x_17   +  x_2   +  x_18   +  x_3   +  x_19  - 5 d0 >= 0
 d0  - x_0 >= 0
 d0  - x_16 >= 0
 d0  - x_1 >= 0
 d0  - x_17 >= 0
 d0  - x_2 >= 0
 d0  - x_18 >= 0
 d0  - x_3 >= 0
 d0  - x_19 >= 0
x_4   +  x_20   +  x_5   +  x_21   +  x_6   +  x_22   +  x_7   +  x_23  - 5 d1 >= 0
 d1  - x_4 >= 0
 d1  - x_20 >= 0
 d1  - x_5 >= 0
 d1  - x_21 >= 0
 d1  - x_6 >= 0
 d1  - x_22 >= 0
 d1  - x_7 >= 0
 d1  - x_23 >= 0
x_8   +  x_24   +  x_9   +  x_25   +  x_10   +  x_26   +  x_11   +  x_27  - 5 d2 >= 0
 d2  - x_8 >= 0
 d2  - x_24 >= 0
 d2  - x_9 >= 0
 d2  - x_25 >= 0
 d2  - x_10 >= 0
 d2  - x_26 >= 0
 d2  - x_11 >= 0
 d2  - x_27 >= 0
x_12   +  x_28   +  x_13   +  x_29   +  x_14   +  x_30   +  x_15   +  x_31  - 5 d3 >= 0
 d3  - x_12 >= 0
 d3  - x_28 >= 0
 d3  - x_13 >= 0
 d3  - x_29 >= 0
 d3  - x_14 >= 0
 d3  - x_30 >= 0
 d3  - x_15 >= 0
 d3  - x_31 >= 0
x_0 + x_1 + x_2 + x_3 + x_4 + x_5 + x_6 + x_7 + x_8 + x_9 + x_10 + x_11 + x_12 + x_13 + x_14 + x_15  >= 1 



Binary
x_0
x_1
x_2
x_3
x_4
x_5
x_6
x_7
x_8
x_9
x_10
x_11
x_12
x_13
x_14
x_15
x_16
x_17
x_18
x_19
x_20
x_21
x_22
x_23
x_24
x_25
x_26
x_27
x_28
x_29
x_30
x_31
d0
d1
d2
d3
End
